job_count = 36 ;
duration = [|10, 2|15, 8|4, 6|13, 2|15, 4|2, 2|16, 2|16, 6|9, 9|3, 6|16, 3|5, 5|12, 6|12, 9|4, 1|3, 1|18, 6|2, 4|15, 4|11, 9|4, 4|7, 6|15, 7|5, 7|7, 5|19, 3|18, 8|19, 2|13, 5|11, 1|4, 8|3, 5|4, 4|15, 2|12, 8|3, 3|] ;
machine_count = 2 ;
cost = [|14, 30|14, 31|10, 37|17, 37|15, 39|14, 20|15, 31|15, 28|14, 20|15, 21|17, 30|17, 29|10, 32|11, 20|12, 23|18, 27|13, 34|10, 23|11, 28|12, 33|16, 21|14, 21|13, 32|14, 23|11, 27|11, 35|12, 26|12, 29|17, 34|15, 27|11, 30|18, 35|17, 26|19, 20|12, 31|19, 22|] ;
deadline = [90, 90, 90, 90, 90, 90, 90, 90, 90, 90, 90, 90, 90, 90, 90, 90, 90, 90, 90, 90, 90, 90, 90, 90, 90, 90, 90, 90, 90, 90, 90, 90, 90, 90, 90, 90] ;
release = [0, 0, 0, 0, 0, 0, 0, 0, 0, 0, 0, 0, 0, 0, 0, 0, 0, 0, 0, 0, 0, 0, 0, 0, 0, 0, 0, 0, 0, 0, 0, 0, 0, 0, 0, 0] ;
resource = [|1, 1|7, 7|3, 3|8, 8|5, 5|8, 8|7, 7|7, 7|5, 5|6, 6|7, 7|2, 2|5, 5|5, 5|9, 9|8, 8|6, 6|6, 6|7, 7|7, 7|7, 7|3, 3|2, 2|4, 4|4, 4|8, 8|3, 3|4, 4|6, 6|7, 7|1, 1|5, 5|4, 4|1, 1|1, 1|8, 8|] ;
capacities = [10, 10] ;
